\LP file generated from the problem `Slots selection' by the
\Xpress Builder Component Library Xpress BCL

Minimize
obj: 196 WR_(0) + 242 WR_(1) + 1.00006e+006 WR_(2) + 1.00003e+006 WR_(3) + 1.00006e+006 WR_(4) + 
1.00005e+006 WR_(5) + 1.00006e+006 WR_(6) + 1.00008e+006 WR_(7) + 1.00003e+006 WR_(8) + 
1.00009e+006 WR_(9) + 69 WR_(10) + 1.00005e+006 WR_(11) + 81 WR_(12) + 1.00003e+006 WR_(13) + 
189 WR_(14) + 1.00003e+006 WR_(15) + 128 WR_(16) + 1.00006e+006 WR_(17) + 1.00006e+006 WR_(18) + 
1.00003e+006 WR_(19) + 1.00009e+006 WR_(20) + 1.00005e+006 WR_(21) + 208 WR_(22) + 
1.00003e+006 WR_(23) + 144 WR_(24) + 188 WR_(25) + 1.00005e+006 WR_(26) + 1.00003e+006 WR_(27) + 
1.00003e+006 WR_(28) + 159 WR_(29) + 121 WR_(30) + 141 WR_(31) + 1.00003e+006 WR_(32) + 
66 WR_(33) + 126 WR_(34) + 214 WR_(35) + 1.00003e+006 WR_(36) + 1.00003e+006 WR_(37) + 
125 WR_(38) + 1.00003e+006 WR_(39) + 1.00003e+006 WR_(40) + 1.00006e+006 WR_(41) + 
1.00003e+006 WR_(42) + 1.00009e+006 WR_(43) + 218 WR_(44) + 63 WR_(45) + 184 WR_(46) + 
1.00009e+006 WR_(47) + 1.00009e+006 WR_(48) + 1.00012e+006 WR_(49) + 1.00003e+006 WR_(50) + 
144 WR_(51) + 1.00009e+006 WR_(52) + 1.00006e+006 WR_(53) + 159 WR_(54) + 1.00003e+006 WR_(55) + 
1.00006e+006 WR_(56) + 1.00008e+006 WR_(57) + 1.00009e+006 WR_(58) + 1.00003e+006 WR_(59) + 
1.00003e+006 WR_(60) + 1.00009e+006 WR_(61) + 1.00003e+006 WR_(62) + 1.00003e+006 WR_(63) + 
1.00008e+006 WR_(64) + 1.00003e+006 WR_(65) + 1.00003e+006 WR_(66) + 1.00008e+006 WR_(67) + 
1.00003e+006 WR_(68) + 1.00012e+006 WR_(69) + 1.00003e+006 WR_(70) + 1.00003e+006 WR_(71) + 
1.00008e+006 WR_(72) + 1.00006e+006 WR_(73) + 1.00005e+006 WR_(74) + 1.00003e+006 WR_(75) + 
1.00003e+006 WR_(76) + 1.00003e+006 WR_(77) + 1.00006e+006 WR_(78) + 1.00009e+006 WR_(79) + 
1.00006e+006 WR_(80) + 1.00008e+006 WR_(81) + 1.00008e+006 WR_(82) + 1.00006e+006 WR_(83) + 
1.00009e+006 WR_(84) + 1.00003e+006 WR_(85) + 1.00003e+006 WR_(86) + 1.00006e+006 WR_(87) + 
1.00005e+006 WR_(88) + 1.00005e+006 WR_(89) + 1.00003e+006 WR_(90) + 1.00003e+006 WR_(91) + 
1.00003e+006 WR_(92) + 1.00005e+006 WR_(93) + 1.00006e+006 WR_(94) + 1.00006e+006 WR_(95) + 
1.00009e+006 WR_(96) + 1.00003e+006 WR_(97) + 1.00003e+006 WR_(98) + 1.00003e+006 WR_(99) + 
1.00003e+006 WR_(100) + 1.00009e+006 WR_(101) + 1.00003e+006 WR_(102) + 1.00003e+006 WR_(103) + 
1.00008e+006 WR_(104) + 1.00008e+006 WR_(105) + 1.00003e+006 WR_(106) + 1.00003e+006 WR_(107) + 
1.00009e+006 WR_(108) + 1.00006e+006 WR_(109) + 1.00003e+006 WR_(110) + 1.00008e+006 WR_(111) + 
1.00003e+006 WR_(112) + 1.00003e+006 WR_(113) + 1.00005e+006 WR_(114) + 1.00003e+006 WR_(115) + 
1.00003e+006 WR_(116) + 1.00009e+006 WR_(117) + 1.00009e+006 WR_(118) + 1.00006e+006 WR_(119) + 
1.00003e+006 WR_(120) + 1.00003e+006 WR_(121) + 1.00006e+006 WR_(122) + 1.00006e+006 WR_(123) + 
1.00006e+006 WR_(124) + 1.00003e+006 WR_(125) + 1.00012e+006 WR_(126) + 1.00006e+006 WR_(127) + 
1.00003e+006 WR_(128) + 1.00003e+006 WR_(129) + 1.00009e+006 WR_(130) + 1.00009e+006 WR_(131) + 
1.00005e+006 WR_(132) + 1.00003e+006 WR_(133) + 1.00005e+006 WR_(134) + 1.00009e+006 WR_(135) + 
1.00003e+006 WR_(136) + 1.00009e+006 WR_(137) + 1.00012e+006 WR_(138) + 1.00008e+006 WR_(139) + 
1.00003e+006 WR_(140) + 1.00006e+006 WR_(141) + 1.00012e+006 WR_(142) + 1.00006e+006 WR_(143) + 
1.00005e+006 WR_(144) + 1.00005e+006 WR_(145) + 1.00003e+006 WR_(146) + 1.00009e+006 WR_(147) + 
1.00006e+006 WR_(148) + 1.00009e+006 WR_(149)

Subject To
slot_75: WR_(54) + WR_(149) = 1
slot_74: WR_(16) + WR_(53) + WR_(148) = 1
slot_73: WR_(52) + WR_(147) = 1
slot_72: WR_(27) + WR_(146) = 1
slot_71: WR_(26) + WR_(145) = 1
slot_70: WR_(74) + WR_(144) = 1
slot_69: WR_(51) + WR_(143) = 1
slot_68: WR_(25) + WR_(142) = 1
slot_67: WR_(25) + WR_(73) + WR_(141) = 1
slot_66: WR_(10) + WR_(50) + WR_(140) = 1
slot_65: WR_(72) + WR_(139) = 1
slot_64: WR_(14) + WR_(22) + WR_(49) + WR_(138) = 1
slot_63: WR_(24) + WR_(137) = 1
slot_62: WR_(22) + WR_(23) + WR_(136) = 1
slot_61: WR_(48) + WR_(135) = 1
slot_60: WR_(22) + WR_(134) = 1
slot_59: WR_(71) + WR_(133) = 1
slot_58: WR_(21) + WR_(132) = 1
slot_57: WR_(20) + WR_(131) = 1
slot_56: WR_(47) + WR_(130) = 1
slot_55: WR_(19) + WR_(129) = 1
slot_54: WR_(70) + WR_(128) = 1
slot_53: WR_(46) + WR_(127) = 1
slot_52: WR_(44) + WR_(46) + WR_(69) + WR_(126) = 1
slot_51: WR_(45) + WR_(125) = 1
slot_50: WR_(18) + WR_(54) + WR_(124) = 1
slot_49: WR_(17) + WR_(123) = 1
slot_48: WR_(16) + WR_(122) = 1
slot_47: WR_(45) + WR_(68) + WR_(121) = 1
slot_46: WR_(15) + WR_(120) = 1
slot_45: WR_(14) + WR_(119) = 1
slot_44: WR_(44) + WR_(118) = 1
slot_43: WR_(43) + WR_(117) = 1
slot_42: WR_(13) + WR_(116) = 1
slot_41: WR_(12) + WR_(115) = 1
slot_40: WR_(11) + WR_(12) + WR_(24) + WR_(114) = 1
slot_39: WR_(10) + WR_(113) = 1
slot_38: WR_(42) + WR_(112) = 1
slot_37: WR_(51) + WR_(67) + WR_(111) = 1
slot_36: WR_(38) + WR_(66) + WR_(110) = 1
slot_35: WR_(41) + WR_(109) = 1
slot_34: WR_(9) + WR_(108) = 1
slot_33: WR_(0) + WR_(65) + WR_(107) = 1
slot_32: WR_(8) + WR_(106) = 1
slot_31: WR_(7) + WR_(34) + WR_(105) = 1
slot_30: WR_(64) + WR_(104) = 1
slot_29: WR_(40) + WR_(103) = 1
slot_28: WR_(39) + WR_(102) = 1
slot_27: WR_(1) + WR_(38) + WR_(101) = 1
slot_26: WR_(30) + WR_(33) + WR_(63) + WR_(100) = 1
slot_25: WR_(37) + WR_(99) = 1
slot_24: WR_(62) + WR_(98) = 1
slot_23: WR_(36) + WR_(97) = 1
slot_22: WR_(61) + WR_(96) = 1
slot_21: WR_(35) + WR_(95) = 1
slot_20: WR_(6) + WR_(94) = 1
slot_19: WR_(34) + WR_(93) = 1
slot_18: WR_(60) + WR_(92) = 1
slot_17: WR_(33) + WR_(91) = 1
slot_16: WR_(32) + WR_(90) = 1
slot_15: WR_(5) + WR_(89) = 1
slot_14: WR_(31) + WR_(88) = 1
slot_13: WR_(1) + WR_(4) + WR_(35) + WR_(87) = 1
slot_12: WR_(3) + WR_(86) = 1
slot_11: WR_(29) + WR_(31) + WR_(59) + WR_(85) = 1
slot_10: WR_(58) + WR_(84) = 1
slot_9: WR_(0) + WR_(2) + WR_(29) + WR_(31) + WR_(83) = 1
slot_8: WR_(1) + WR_(82) = 1
slot_7: WR_(35) + WR_(57) + WR_(81) = 1
slot_6: WR_(56) + WR_(80) = 1
slot_5: WR_(30) + WR_(79) = 1
slot_4: WR_(0) + WR_(29) + WR_(78) = 1
slot_3: WR_(55) + WR_(77) = 1
slot_2: WR_(0) + WR_(76) = 1
slot_1: WR_(28) + WR_(75) = 1
slot: = 0

Bounds

Binaries
WR_(0) WR_(1) WR_(2) WR_(3) WR_(4) WR_(5) WR_(6) WR_(7) WR_(8) WR_(9) WR_(10) 
WR_(11) WR_(12) WR_(13) WR_(14) WR_(15) WR_(16) WR_(17) WR_(18) WR_(19) WR_(20) 
WR_(21) WR_(22) WR_(23) WR_(24) WR_(25) WR_(26) WR_(27) WR_(28) WR_(29) WR_(30) 
WR_(31) WR_(32) WR_(33) WR_(34) WR_(35) WR_(36) WR_(37) WR_(38) WR_(39) WR_(40) 
WR_(41) WR_(42) WR_(43) WR_(44) WR_(45) WR_(46) WR_(47) WR_(48) WR_(49) WR_(50) 
WR_(51) WR_(52) WR_(53) WR_(54) WR_(55) WR_(56) WR_(57) WR_(58) WR_(59) WR_(60) 
WR_(61) WR_(62) WR_(63) WR_(64) WR_(65) WR_(66) WR_(67) WR_(68) WR_(69) WR_(70) 
WR_(71) WR_(72) WR_(73) WR_(74) WR_(75) WR_(76) WR_(77) WR_(78) WR_(79) WR_(80) 
WR_(81) WR_(82) WR_(83) WR_(84) WR_(85) WR_(86) WR_(87) WR_(88) WR_(89) WR_(90) 
WR_(91) WR_(92) WR_(93) WR_(94) WR_(95) WR_(96) WR_(97) WR_(98) WR_(99) WR_(100) 
WR_(101) WR_(102) WR_(103) WR_(104) WR_(105) WR_(106) WR_(107) WR_(108) WR_(109) 
WR_(110) WR_(111) WR_(112) WR_(113) WR_(114) WR_(115) WR_(116) WR_(117) WR_(118) 
WR_(119) WR_(120) WR_(121) WR_(122) WR_(123) WR_(124) WR_(125) WR_(126) WR_(127) 
WR_(128) WR_(129) WR_(130) WR_(131) WR_(132) WR_(133) WR_(134) WR_(135) WR_(136) 
WR_(137) WR_(138) WR_(139) WR_(140) WR_(141) WR_(142) WR_(143) WR_(144) WR_(145) 
WR_(146) WR_(147) WR_(148) WR_(149) 

End
